%%% static parameters %%%
timespan = 1;
Fact = [2];
Distr1 = [5];
Distr2 = [10];
Clients_N = [120];
Demand_W = [15];
Lt0 = [4];
Lt1 = [4];
SS_ = [0.85];
DS_D = [5];
K = [200];
MA = [500];
%%% dynamic parameters %%%
lost_ratio_sales_ret_th = 0.8530746712564257;
lost_ratio_sales_ret_w = 92;
lost_ratio_sales_dis_th = 0.09383592777569649;
lost_ratio_sales_dis_w = 39;
lost_ratio_sales_fac_th = 0.40746288713804213;
lost_ratio_sales_fac_w = 50;
stock_customer_MA_mean_relative_th = 0.11053489440171582;
stock_customer_MA_mean_relative_w = 22;
stock_distributor_MA_mean_relative_th = 0.0346977435412561;
stock_distributor_MA_mean_relative_w = 97;
stock_retailer_MA_mean_relative_th = 0.8223487706998636;
stock_retailer_MA_mean_relative_w = 18;
stock_factory_MA_mean_relative_th = 0.46885579854473347;
stock_factory_MA_mean_relative_w = 10;
